certificates/rado_a11_c272_N29.cnf
c Rad2 upper bound instance: x1 + 11*x2 - x3 = 272, interval [1,29]
p cnf 29 152
1 4 25 0
-1 -4 -25 0
1 15 26 0
-1 -15 -26 0
1 26 27 0
-1 -26 -27 0
2 5 25 0
-2 -5 -25 0
2 16 26 0
-2 -16 -26 0
2 27 0
-2 -27 0
3 6 25 0
-3 -6 -25 0
3 17 26 0
-3 -17 -26 0
3 27 28 0
-3 -27 -28 0
4 7 25 0
-4 -7 -25 0
4 18 26 0
-4 -18 -26 0
4 27 29 0
-4 -27 -29 0
5 8 25 0
-5 -8 -25 0
5 19 26 0
-5 -19 -26 0
6 9 25 0
-6 -9 -25 0
6 20 26 0
-6 -20 -26 0
7 10 25 0
-7 -10 -25 0
7 21 26 0
-7 -21 -26 0
8 11 25 0
-8 -11 -25 0
8 22 26 0
-8 -22 -26 0
1 9 24 0
-1 -9 -24 0
9 12 25 0
-9 -12 -25 0
9 23 26 0
-9 -23 -26 0
2 10 24 0
-2 -10 -24 0
10 13 25 0
-10 -13 -25 0
10 24 26 0
-10 -24 -26 0
3 11 24 0
-3 -11 -24 0
11 14 25 0
-11 -14 -25 0
11 25 26 0
-11 -25 -26 0
4 12 24 0
-4 -12 -24 0
12 15 25 0
-12 -15 -25 0
12 26 0
-12 -26 0
5 13 24 0
-5 -13 -24 0
13 16 25 0
-13 -16 -25 0
13 26 27 0
-13 -26 -27 0
6 14 24 0
-6 -14 -24 0
14 17 25 0
-14 -17 -25 0
14 26 28 0
-14 -26 -28 0
7 15 24 0
-7 -15 -24 0
15 18 25 0
-15 -18 -25 0
15 26 29 0
-15 -26 -29 0
8 16 24 0
-8 -16 -24 0
16 19 25 0
-16 -19 -25 0
9 17 24 0
-9 -17 -24 0
17 20 25 0
-17 -20 -25 0
10 18 24 0
-10 -18 -24 0
18 21 25 0
-18 -21 -25 0
11 19 24 0
-11 -19 -24 0
19 22 25 0
-19 -22 -25 0
1 20 23 0
-1 -20 -23 0
12 20 24 0
-12 -20 -24 0
20 23 25 0
-20 -23 -25 0
2 21 23 0
-2 -21 -23 0
13 21 24 0
-13 -21 -24 0
21 24 25 0
-21 -24 -25 0
3 22 23 0
-3 -22 -23 0
14 22 24 0
-14 -22 -24 0
22 25 0
-22 -25 0
4 23 0
-4 -23 0
15 23 24 0
-15 -23 -24 0
23 25 26 0
-23 -25 -26 0
5 23 24 0
-5 -23 -24 0
16 24 0
-16 -24 0
24 25 27 0
-24 -25 -27 0
6 23 25 0
-6 -23 -25 0
17 24 25 0
-17 -24 -25 0
25 28 0
-25 -28 0
7 23 26 0
-7 -23 -26 0
18 24 26 0
-18 -24 -26 0
25 26 29 0
-25 -26 -29 0
8 23 27 0
-8 -23 -27 0
19 24 27 0
-19 -24 -27 0
9 23 28 0
-9 -23 -28 0
20 24 28 0
-20 -24 -28 0
10 23 29 0
-10 -23 -29 0
21 24 29 0
-21 -24 -29 0
