certificates/rado_a11_c272_N29.drat
-27 25 -29 0
25 -29 0
d -27 25 -29 0
-25 -29 0
d -26 -25 -29 0
-29 0
26 -25 0
-26 -25 0
d -11 -26 -25 0
-25 0
22 0
28 0
26 0
-12 0
-14 0
-8 0
9 0
15 0
11 0
17 0
5 0
-23 0
-1 0
-3 0
-24 0
-19 0
4 0
20 0
6 0
10 0
27 0
21 0
16 0
-18 0
0
